This is Ipopt version 3.14.19, running with linear solver MUMPS 5.6.2.

Number of nonzeros in equality constraint Jacobian...:        0
Number of nonzeros in inequality constraint Jacobian.:        0
Number of nonzeros in Lagrangian Hessian.............:        0

Total number of variables............................:        4
                     variables with only lower bounds:        0
                variables with lower and upper bounds:        4
                     variables with only upper bounds:        0
Total number of equality constraints.................:        0
Total number of inequality constraints...............:        0
        inequality constraints with only lower bounds:        0
   inequality constraints with lower and upper bounds:        0
        inequality constraints with only upper bounds:        0

iter    objective    inf_pr   inf_du lg(mu)  ||d||  lg(rg) alpha_du alpha_pr  ls
   0  6.5897545e-22 0.00e+00 2.16e+00   0.0 0.00e+00    -  0.00e+00 0.00e+00   0
   1  6.3101606e-22 0.00e+00 3.88e-01  -0.3 5.34e-01    -  8.82e-01 1.00e+00f  1
   2  1.8519732e-22 0.00e+00 5.78e-01  -1.8 1.22e+00    -  9.29e-01 1.00e+00f  1
   3  1.3725905e-22 0.00e+00 2.00e-01  -2.8 3.91e-01    -  9.96e-01 1.00e+00f  1
   4  1.1938476e-22 0.00e+00 1.22e-01  -3.8 4.28e-01    -  1.00e+00 6.46e-01f  1
   5  1.0777807e-22 0.00e+00 4.86e-02  -4.5 8.63e-02    -  1.00e+00 8.80e-01f  1
   6  1.0753126e-22 0.00e+00 5.23e-04  -6.1 1.12e-03    -  1.00e+00 1.00e+00f  1
   7  1.0751265e-22 0.00e+00 9.37e-05  -7.5 3.76e-05    -  1.00e+00 2.50e-01f  3

Number of Iterations....: 7

                                   (scaled)                 (unscaled)
Objective...............:   1.6315122538276269e-01    1.0751265228875809e-22
Dual infeasibility......:   9.3670230776246409e-05    6.1726382548630880e-26
Constraint violation....:   0.0000000000000000e+00    0.0000000000000000e+00
Variable bound violation:   0.0000000000000000e+00    0.0000000000000000e+00
Complementarity.........:   6.9696557982278505e-06    4.5928320712837600e-27
Overall NLP error.......:   9.3670230776246409e-05    6.1726382548630880e-26


Number of objective function evaluations             = 14
Number of objective gradient evaluations             = 8
Number of equality constraint evaluations            = 0
Number of inequality constraint evaluations          = 0
Number of equality constraint Jacobian evaluations   = 0
Number of inequality constraint Jacobian evaluations = 0
Number of Lagrangian Hessian evaluations             = 0
Total seconds in IPOPT                               = 32.036

EXIT: Optimal Solution Found.
